c nIsolatedPIs 0
c maxPI 32
p cnf 106 223
c gate 33 -11 -27 0
-11 -33 0
-27 -33 0
11 27 33 0
c gate 34 11 27 0
11 -34 0
27 -34 0
-11 -27 34 0
c gate 35 -33 -34 0
-33 -35 0
-34 -35 0
33 34 35 0
c gate 36 -10 26 0
-10 -36 0
26 -36 0
10 -26 36 0
c gate 37 9 -25 0
9 -37 0
-25 -37 0
-9 25 37 0
c gate 38 -9 25 0
-9 -38 0
25 -38 0
9 -25 38 0
c gate 39 8 -24 0
8 -39 0
-24 -39 0
-8 24 39 0
c gate 40 -8 24 0
-8 -40 0
24 -40 0
8 -24 40 0
c gate 41 7 -23 0
7 -41 0
-23 -41 0
-7 23 41 0
c gate 42 6 -22 0
6 -42 0
-22 -42 0
-6 22 42 0
c gate 43 -6 22 0
-6 -43 0
22 -43 0
6 -22 43 0
c gate 44 -5 21 0
-5 -44 0
21 -44 0
5 -21 44 0
c gate 45 -5 -21 0
-5 -45 0
-21 -45 0
5 21 45 0
c gate 46 5 21 0
5 -46 0
21 -46 0
-5 -21 46 0
c gate 47 -45 -46 0
-45 -47 0
-46 -47 0
45 46 47 0
c gate 48 -4 20 0
-4 -48 0
20 -48 0
4 -20 48 0
c gate 49 3 -19 0
3 -49 0
-19 -49 0
-3 19 49 0
c gate 50 -3 19 0
-3 -50 0
19 -50 0
3 -19 50 0
c gate 51 2 -18 0
2 -51 0
-18 -51 0
-2 18 51 0
c gate 52 -2 18 0
-2 -52 0
18 -52 0
2 -18 52 0
c gate 53 -1 17 0
-1 -53 0
17 -53 0
1 -17 53 0
c gate 54 -52 -53 0
-52 -54 0
-53 -54 0
52 53 54 0
c gate 55 -51 -54 0
-51 -55 0
-54 -55 0
51 54 55 0
c gate 56 -50 -55 0
-50 -56 0
-55 -56 0
50 55 56 0
c gate 57 -49 -56 0
-49 -57 0
-56 -57 0
49 56 57 0
c gate 58 -48 -57 0
-48 -58 0
-57 -58 0
48 57 58 0
c gate 59 -47 -58 0
-47 -59 0
-58 -59 0
47 58 59 0
c gate 60 -44 -59 0
-44 -60 0
-59 -60 0
44 59 60 0
c gate 61 4 -20 0
4 -61 0
-20 -61 0
-4 20 61 0
c gate 62 57 61 0
57 -62 0
61 -62 0
-57 -61 62 0
c gate 63 -47 62 0
-47 -63 0
62 -63 0
47 -62 63 0
c gate 64 -60 -63 0
-60 -64 0
-63 -64 0
60 63 64 0
c gate 65 -43 -64 0
-43 -65 0
-64 -65 0
43 64 65 0
c gate 66 -42 -65 0
-42 -66 0
-65 -66 0
42 65 66 0
c gate 67 -7 23 0
-7 -67 0
23 -67 0
7 -23 67 0
c gate 68 -66 -67 0
-66 -68 0
-67 -68 0
66 67 68 0
c gate 69 -41 -68 0
-41 -69 0
-68 -69 0
41 68 69 0
c gate 70 -40 -69 0
-40 -70 0
-69 -70 0
40 69 70 0
c gate 71 -39 -70 0
-39 -71 0
-70 -71 0
39 70 71 0
c gate 72 -38 -71 0
-38 -72 0
-71 -72 0
38 71 72 0
c gate 73 -37 -72 0
-37 -73 0
-72 -73 0
37 72 73 0
c gate 74 -36 -73 0
-36 -74 0
-73 -74 0
36 73 74 0
c gate 75 10 -26 0
10 -75 0
-26 -75 0
-10 26 75 0
c gate 76 -42 -60 0
-42 -76 0
-60 -76 0
42 60 76 0
c gate 77 -43 -76 0
-43 -77 0
-76 -77 0
43 76 77 0
c gate 78 -41 -77 0
-41 -78 0
-77 -78 0
41 77 78 0
c gate 79 -67 -78 0
-67 -79 0
-78 -79 0
67 78 79 0
c gate 80 -39 -79 0
-39 -80 0
-79 -80 0
39 79 80 0
c gate 81 -40 -80 0
-40 -81 0
-80 -81 0
40 80 81 0
c gate 82 -37 -81 0
-37 -82 0
-81 -82 0
37 81 82 0
c gate 83 -38 -82 0
-38 -83 0
-82 -83 0
38 82 83 0
c gate 84 -75 -83 0
-75 -84 0
-83 -84 0
75 83 84 0
c gate 85 74 84 0
74 -85 0
84 -85 0
-74 -84 85 0
c gate 86 -35 85 0
-35 -86 0
85 -86 0
35 -85 86 0
c gate 87 -12 -28 0
-12 -87 0
-28 -87 0
12 28 87 0
c gate 88 12 28 0
12 -88 0
28 -88 0
-12 -28 88 0
c gate 89 -87 -88 0
-87 -89 0
-88 -89 0
87 88 89 0
c gate 90 15 31 0
15 -90 0
31 -90 0
-15 -31 90 0
c gate 91 -15 -31 0
-15 -91 0
-31 -91 0
15 31 91 0
c gate 92 -90 -91 0
-90 -92 0
-91 -92 0
90 91 92 0
c gate 93 -16 -32 0
-16 -93 0
-32 -93 0
16 32 93 0
c gate 94 16 32 0
16 -94 0
32 -94 0
-16 -32 94 0
c gate 95 -93 -94 0
-93 -95 0
-94 -95 0
93 94 95 0
c gate 96 -92 -95 0
-92 -96 0
-95 -96 0
92 95 96 0
c gate 97 -13 -29 0
-13 -97 0
-29 -97 0
13 29 97 0
c gate 98 13 29 0
13 -98 0
29 -98 0
-13 -29 98 0
c gate 99 -97 -98 0
-97 -99 0
-98 -99 0
97 98 99 0
c gate 100 14 30 0
14 -100 0
30 -100 0
-14 -30 100 0
c gate 101 -14 -30 0
-14 -101 0
-30 -101 0
14 30 101 0
c gate 102 -100 -101 0
-100 -102 0
-101 -102 0
100 101 102 0
c gate 103 -99 -102 0
-99 -103 0
-102 -103 0
99 102 103 0
c gate 104 96 103 0
96 -104 0
103 -104 0
-96 -103 104 0
c gate 105 -89 104 0
-89 -105 0
104 -105 0
89 -104 105 0
c gate 106 86 105 0
86 -106 0
105 -106 0
-86 -105 106 0
c PO
106 0
